p cnf 70 745
4 7 11 16 22 29 37 46 56 67 79 92 106 121 0
8 12 17 23 30 38 47 57 68 80 93 107 122 138 0
13 18 24 31 39 48 58 69 81 94 108 123 139 156 0
19 25 32 40 49 59 70 82 95 109 124 140 157 175 0
26 33 41 50 60 71 83 96 110 125 141 158 176 195 0
-4 -8 0
-7 -12 0
-11 -17 0
-16 -23 0
-22 -30 0
-29 -38 0
-37 -47 0
-46 -57 0
-56 -68 0
-67 -80 0
-79 -93 0
-92 -107 0
-106 -122 0
-121 -138 0
-4 -13 0
-7 -18 0
-11 -24 0
-16 -31 0
-22 -39 0
-29 -48 0
-37 -58 0
-46 -69 0
-56 -81 0
-67 -94 0
-79 -108 0
-92 -123 0
-106 -139 0
-121 -156 0
-4 -19 0
-7 -25 0
-11 -32 0
-16 -40 0
-22 -49 0
-29 -59 0
-37 -70 0
-46 -82 0
-56 -95 0
-67 -109 0
-79 -124 0
-92 -140 0
-106 -157 0
-121 -175 0
-4 -26 0
-7 -33 0
-11 -41 0
-16 -50 0
-22 -60 0
-29 -71 0
-37 -83 0
-46 -96 0
-56 -110 0
-67 -125 0
-79 -141 0
-92 -158 0
-106 -176 0
-121 -195 0
-8 -13 0
-12 -18 0
-17 -24 0
-23 -31 0
-30 -39 0
-38 -48 0
-47 -58 0
-57 -69 0
-68 -81 0
-80 -94 0
-93 -108 0
-107 -123 0
-122 -139 0
-138 -156 0
-8 -19 0
-12 -25 0
-17 -32 0
-23 -40 0
-30 -49 0
-38 -59 0
-47 -70 0
-57 -82 0
-68 -95 0
-80 -109 0
-93 -124 0
-107 -140 0
-122 -157 0
-138 -175 0
-8 -26 0
-12 -33 0
-17 -41 0
-23 -50 0
-30 -60 0
-38 -71 0
-47 -83 0
-57 -96 0
-68 -110 0
-80 -125 0
-93 -141 0
-107 -158 0
-122 -176 0
-138 -195 0
-13 -19 0
-18 -25 0
-24 -32 0
-31 -40 0
-39 -49 0
-48 -59 0
-58 -70 0
-69 -82 0
-81 -95 0
-94 -109 0
-108 -124 0
-123 -140 0
-139 -157 0
-156 -175 0
-13 -26 0
-18 -33 0
-24 -41 0
-31 -50 0
-39 -60 0
-48 -71 0
-58 -83 0
-69 -96 0
-81 -110 0
-94 -125 0
-108 -141 0
-123 -158 0
-139 -176 0
-156 -195 0
-19 -26 0
-25 -33 0
-32 -41 0
-40 -50 0
-49 -60 0
-59 -71 0
-70 -83 0
-82 -96 0
-95 -110 0
-109 -125 0
-124 -141 0
-140 -158 0
-157 -176 0
-175 -195 0
-4 -17 0
-4 -23 0
-4 -30 0
-4 -57 0
-4 -80 0
-7 -30 0
-7 -93 0
-7 -122 0
-11 -30 0
-11 -57 0
-11 -107 0
-16 -38 0
-16 -80 0
-16 -107 0
-16 -122 0
-22 -93 0
-29 -68 0
-29 -93 0
-29 -107 0
-29 -122 0
-37 -68 0
-37 -93 0
-37 -122 0
-46 -68 0
-56 -107 0
-56 -138 0
-67 -122 0
-79 -122 0
-79 -138 0
-92 -122 0
-4 -24 0
-4 -31 0
-4 -39 0
-4 -69 0
-4 -94 0
-7 -39 0
-7 -108 0
-7 -139 0
-11 -39 0
-11 -69 0
-11 -123 0
-16 -48 0
-16 -94 0
-16 -123 0
-16 -139 0
-22 -108 0
-29 -81 0
-29 -108 0
-29 -123 0
-29 -139 0
-37 -81 0
-37 -108 0
-37 -139 0
-46 -81 0
-56 -123 0
-56 -156 0
-67 -139 0
-79 -139 0
-79 -156 0
-92 -139 0
-4 -32 0
-4 -40 0
-4 -49 0
-4 -82 0
-4 -109 0
-7 -49 0
-7 -124 0
-7 -157 0
-11 -49 0
-11 -82 0
-11 -140 0
-16 -59 0
-16 -109 0
-16 -140 0
-16 -157 0
-22 -124 0
-29 -95 0
-29 -124 0
-29 -140 0
-29 -157 0
-37 -95 0
-37 -124 0
-37 -157 0
-46 -95 0
-56 -140 0
-56 -175 0
-67 -157 0
-79 -157 0
-79 -175 0
-92 -157 0
-4 -41 0
-4 -50 0
-4 -60 0
-4 -96 0
-4 -125 0
-7 -60 0
-7 -141 0
-7 -176 0
-11 -60 0
-11 -96 0
-11 -158 0
-16 -71 0
-16 -125 0
-16 -158 0
-16 -176 0
-22 -141 0
-29 -110 0
-29 -141 0
-29 -158 0
-29 -176 0
-37 -110 0
-37 -141 0
-37 -176 0
-46 -110 0
-56 -158 0
-56 -195 0
-67 -176 0
-79 -176 0
-79 -195 0
-92 -176 0
-8 -11 0
-8 -16 0
-8 -22 0
-8 -46 0
-8 -67 0
-12 -22 0
-12 -79 0
-12 -106 0
-17 -22 0
-17 -46 0
-17 -92 0
-23 -29 0
-23 -67 0
-23 -92 0
-23 -106 0
-30 -79 0
-38 -56 0
-38 -79 0
-38 -92 0
-38 -106 0
-47 -56 0
-47 -79 0
-47 -106 0
-57 -56 0
-68 -92 0
-68 -121 0
-80 -106 0
-93 -106 0
-93 -121 0
-107 -106 0
-8 -24 0
-8 -31 0
-8 -39 0
-8 -69 0
-8 -94 0
-12 -39 0
-12 -108 0
-12 -139 0
-17 -39 0
-17 -69 0
-17 -123 0
-23 -48 0
-23 -94 0
-23 -123 0
-23 -139 0
-30 -108 0
-38 -81 0
-38 -108 0
-38 -123 0
-38 -139 0
-47 -81 0
-47 -108 0
-47 -139 0
-57 -81 0
-68 -123 0
-68 -156 0
-80 -139 0
-93 -139 0
-93 -156 0
-107 -139 0
-8 -32 0
-8 -40 0
-8 -49 0
-8 -82 0
-8 -109 0
-12 -49 0
-12 -124 0
-12 -157 0
-17 -49 0
-17 -82 0
-17 -140 0
-23 -59 0
-23 -109 0
-23 -140 0
-23 -157 0
-30 -124 0
-38 -95 0
-38 -124 0
-38 -140 0
-38 -157 0
-47 -95 0
-47 -124 0
-47 -157 0
-57 -95 0
-68 -140 0
-68 -175 0
-80 -157 0
-93 -157 0
-93 -175 0
-107 -157 0
-8 -41 0
-8 -50 0
-8 -60 0
-8 -96 0
-8 -125 0
-12 -60 0
-12 -141 0
-12 -176 0
-17 -60 0
-17 -96 0
-17 -158 0
-23 -71 0
-23 -125 0
-23 -158 0
-23 -176 0
-30 -141 0
-38 -110 0
-38 -141 0
-38 -158 0
-38 -176 0
-47 -110 0
-47 -141 0
-47 -176 0
-57 -110 0
-68 -158 0
-68 -195 0
-80 -176 0
-93 -176 0
-93 -195 0
-107 -176 0
-13 -11 0
-13 -16 0
-13 -22 0
-13 -46 0
-13 -67 0
-18 -22 0
-18 -79 0
-18 -106 0
-24 -22 0
-24 -46 0
-24 -92 0
-31 -29 0
-31 -67 0
-31 -92 0
-31 -106 0
-39 -79 0
-48 -56 0
-48 -79 0
-48 -92 0
-48 -106 0
-58 -56 0
-58 -79 0
-58 -106 0
-69 -56 0
-81 -92 0
-81 -121 0
-94 -106 0
-108 -106 0
-108 -121 0
-123 -106 0
-13 -17 0
-13 -23 0
-13 -30 0
-13 -57 0
-13 -80 0
-18 -30 0
-18 -93 0
-18 -122 0
-24 -30 0
-24 -57 0
-24 -107 0
-31 -38 0
-31 -80 0
-31 -107 0
-31 -122 0
-39 -93 0
-48 -68 0
-48 -93 0
-48 -107 0
-48 -122 0
-58 -68 0
-58 -93 0
-58 -122 0
-69 -68 0
-81 -107 0
-81 -138 0
-94 -122 0
-108 -122 0
-108 -138 0
-123 -122 0
-13 -32 0
-13 -40 0
-13 -49 0
-13 -82 0
-13 -109 0
-18 -49 0
-18 -124 0
-18 -157 0
-24 -49 0
-24 -82 0
-24 -140 0
-31 -59 0
-31 -109 0
-31 -140 0
-31 -157 0
-39 -124 0
-48 -95 0
-48 -124 0
-48 -140 0
-48 -157 0
-58 -95 0
-58 -124 0
-58 -157 0
-69 -95 0
-81 -140 0
-81 -175 0
-94 -157 0
-108 -157 0
-108 -175 0
-123 -157 0
-13 -41 0
-13 -50 0
-13 -60 0
-13 -96 0
-13 -125 0
-18 -60 0
-18 -141 0
-18 -176 0
-24 -60 0
-24 -96 0
-24 -158 0
-31 -71 0
-31 -125 0
-31 -158 0
-31 -176 0
-39 -141 0
-48 -110 0
-48 -141 0
-48 -158 0
-48 -176 0
-58 -110 0
-58 -141 0
-58 -176 0
-69 -110 0
-81 -158 0
-81 -195 0
-94 -176 0
-108 -176 0
-108 -195 0
-123 -176 0
-19 -11 0
-19 -16 0
-19 -22 0
-19 -46 0
-19 -67 0
-25 -22 0
-25 -79 0
-25 -106 0
-32 -22 0
-32 -46 0
-32 -92 0
-40 -29 0
-40 -67 0
-40 -92 0
-40 -106 0
-49 -79 0
-59 -56 0
-59 -79 0
-59 -92 0
-59 -106 0
-70 -56 0
-70 -79 0
-70 -106 0
-82 -56 0
-95 -92 0
-95 -121 0
-109 -106 0
-124 -106 0
-124 -121 0
-140 -106 0
-19 -17 0
-19 -23 0
-19 -30 0
-19 -57 0
-19 -80 0
-25 -30 0
-25 -93 0
-25 -122 0
-32 -30 0
-32 -57 0
-32 -107 0
-40 -38 0
-40 -80 0
-40 -107 0
-40 -122 0
-49 -93 0
-59 -68 0
-59 -93 0
-59 -107 0
-59 -122 0
-70 -68 0
-70 -93 0
-70 -122 0
-82 -68 0
-95 -107 0
-95 -138 0
-109 -122 0
-124 -122 0
-124 -138 0
-140 -122 0
-19 -24 0
-19 -31 0
-19 -39 0
-19 -69 0
-19 -94 0
-25 -39 0
-25 -108 0
-25 -139 0
-32 -39 0
-32 -69 0
-32 -123 0
-40 -48 0
-40 -94 0
-40 -123 0
-40 -139 0
-49 -108 0
-59 -81 0
-59 -108 0
-59 -123 0
-59 -139 0
-70 -81 0
-70 -108 0
-70 -139 0
-82 -81 0
-95 -123 0
-95 -156 0
-109 -139 0
-124 -139 0
-124 -156 0
-140 -139 0
-19 -41 0
-19 -50 0
-19 -60 0
-19 -96 0
-19 -125 0
-25 -60 0
-25 -141 0
-25 -176 0
-32 -60 0
-32 -96 0
-32 -158 0
-40 -71 0
-40 -125 0
-40 -158 0
-40 -176 0
-49 -141 0
-59 -110 0
-59 -141 0
-59 -158 0
-59 -176 0
-70 -110 0
-70 -141 0
-70 -176 0
-82 -110 0
-95 -158 0
-95 -195 0
-109 -176 0
-124 -176 0
-124 -195 0
-140 -176 0
-26 -11 0
-26 -16 0
-26 -22 0
-26 -46 0
-26 -67 0
-33 -22 0
-33 -79 0
-33 -106 0
-41 -22 0
-41 -46 0
-41 -92 0
-50 -29 0
-50 -67 0
-50 -92 0
-50 -106 0
-60 -79 0
-71 -56 0
-71 -79 0
-71 -92 0
-71 -106 0
-83 -56 0
-83 -79 0
-83 -106 0
-96 -56 0
-110 -92 0
-110 -121 0
-125 -106 0
-141 -106 0
-141 -121 0
-158 -106 0
-26 -17 0
-26 -23 0
-26 -30 0
-26 -57 0
-26 -80 0
-33 -30 0
-33 -93 0
-33 -122 0
-41 -30 0
-41 -57 0
-41 -107 0
-50 -38 0
-50 -80 0
-50 -107 0
-50 -122 0
-60 -93 0
-71 -68 0
-71 -93 0
-71 -107 0
-71 -122 0
-83 -68 0
-83 -93 0
-83 -122 0
-96 -68 0
-110 -107 0
-110 -138 0
-125 -122 0
-141 -122 0
-141 -138 0
-158 -122 0
-26 -24 0
-26 -31 0
-26 -39 0
-26 -69 0
-26 -94 0
-33 -39 0
-33 -108 0
-33 -139 0
-41 -39 0
-41 -69 0
-41 -123 0
-50 -48 0
-50 -94 0
-50 -123 0
-50 -139 0
-60 -108 0
-71 -81 0
-71 -108 0
-71 -123 0
-71 -139 0
-83 -81 0
-83 -108 0
-83 -139 0
-96 -81 0
-110 -123 0
-110 -156 0
-125 -139 0
-141 -139 0
-141 -156 0
-158 -139 0
-26 -32 0
-26 -40 0
-26 -49 0
-26 -82 0
-26 -109 0
-33 -49 0
-33 -124 0
-33 -157 0
-41 -49 0
-41 -82 0
-41 -140 0
-50 -59 0
-50 -109 0
-50 -140 0
-50 -157 0
-60 -124 0
-71 -95 0
-71 -124 0
-71 -140 0
-71 -157 0
-83 -95 0
-83 -124 0
-83 -157 0
-96 -95 0
-110 -140 0
-110 -175 0
-125 -157 0
-141 -157 0
-141 -175 0
-158 -157 0
